50
    26    38    68    85    45    25    11    15    47    36    16    70    63    28    70    28    61    22    52    79    55     5    30    30    94    29    65     5    72    13     5    41    21    39    92    93    15    57    57    30    67    83    23    37    34    96   100    16    10    43
    10     8     5     8     5     4     7     5     7     2     6     4     3     2     7    10     2     3    10     3     5     5     6    10     7     6     9    10     3     6     3     8     1     1     8     2     1    10     2     8     6     2     9     4    10     2     2     2     9     8
   980   826   734     0     0     0     0   309  1059   380   439   140   528     0    36     0  1008   879     0     0   128     0     0   474   268   229     0  1093     0   774   926     0   314   187     0   942     0   115  1073     0   166     0     0     0     0     0   979     0   878     0
